TCS_Benchmarks/redos_fix/corpus2_output_distinct_3638_3637_9_0.txt
.*
(.*)(pythonw?[0-9.]*[ \t])(.*)
.*